NAME : rnd20_50.tsp
TYPE : TSP
DIMENSION : 50
EDGE_WEIGHT_TYPE : EUC_2D
NODE_COORD_SECTION
1 787 591
2 971 56
3 451 503
4 510 648
5 359 421
6 625 21
7 783 125
8 734 356
9 293 10
10 324 779
11 99 212
12 993 82
13 997 973
14 558 389
15 638 896
16 711 66
17 139 696
18 450 630
19 115 827
20 56 366
21 722 128
22 359 425
23 810 931
24 237 294
25 913 959
26 606 354
27 645 885
28 528 196
29 60 161
30 526 842
31 758 860
32 675 492
33 913 25
34 105 420
35 183 362
36 513 26
37 363 839
38 162 73
39 717 612
40 222 582
41 235 229
42 225 620
43 4 783
44 611 88
45 129 615
46 668 430
47 855 649
48 650 636
49 729 921
50 168 670
